set VV := 0 1 2 3 4 5 6 7 8 9 10 11 12 13 14 15 16 17 18 19 20 21 22 23 24 ;
set VS := 0 1 2 3 4 5 6 7 8 9 10 11 12 13 14 15 16 17 18 19 20 21 22 23 24 25 26 27 28 29 30 31 32 33 34 35 36 37 38 39 40 41 42 43 44 45 46 47 48 49 50 51 52 53 ;
param cv := 
0 25
1 23
2 17
3 25
4 12
5 24
6 14
7 24
8 14
9 19
10 12
11 24
12 10
13 19
14 25
15 16
16 17
17 22
18 20
19 16
20 11
21 16
22 10
23 10
24 22
;
param cs := 
0 27
1 29
2 31
3 31
4 34
5 28
6 37
7 39
8 24
9 27
10 39
11 38
12 40
13 33
14 21
15 24
16 33
17 34
18 30
19 22
20 39
21 30
22 29
23 24
24 34
25 40
26 32
27 21
28 22
29 21
30 34
31 23
32 38
33 35
34 39
35 39
36 27
37 21
38 25
39 22
40 35
41 23
42 27
43 37
44 32
45 33
46 35
47 27
48 28
49 22
50 40
51 34
52 39
53 25
;
param bv:	 0 1 2 3 4 5 6 7 8 9 10 11 12 13 14 15 16 17 18 19 20 21 22 23 24 := 
		0 0 0 0 15 0 0 0 0 0 0 0 0 0 17 0 0 0 0 0 0 0 0 0 16 0 
		1 0 0 0 0 0 0 0 0 0 0 0 0 0 0 0 0 0 0 0 12 0 0 13 0 0 
		2 0 0 0 0 0 0 0 0 0 0 0 14 10 0 0 0 0 0 0 0 0 0 12 0 25 
		3 0 0 0 0 0 0 0 0 0 0 0 0 0 0 0 0 0 0 20 0 21 0 11 0 0 
		4 0 0 0 0 0 22 0 0 0 0 0 0 0 0 0 0 0 0 0 0 0 0 0 0 0 
		5 0 0 0 0 0 0 0 19 0 0 18 0 0 0 0 0 0 0 0 0 0 0 0 0 0 
		6 0 0 0 0 0 0 0 0 0 0 0 0 0 16 0 0 0 0 0 0 0 19 0 0 0 
		7 0 0 0 0 0 0 0 0 0 0 0 0 20 0 0 0 0 14 0 0 0 0 0 0 0 
		8 0 0 0 0 0 0 0 0 0 0 12 0 0 0 0 0 0 0 0 0 0 0 0 0 18 
		9 0 0 0 0 0 0 0 0 0 0 0 0 0 0 0 0 22 0 0 24 0 0 0 0 0 
		10 0 0 0 0 0 0 0 0 0 0 0 0 0 0 0 0 0 16 18 0 0 0 0 10 0 
		11 0 0 0 0 0 0 0 0 0 0 0 0 0 0 0 0 0 0 0 0 0 0 23 0 0 
		12 0 0 0 0 0 0 0 0 0 0 0 0 0 0 0 0 0 0 0 0 0 0 0 25 0 
		13 0 0 0 0 0 0 0 0 0 0 0 0 0 0 0 0 0 0 0 0 0 0 0 0 14 
		14 0 0 0 0 0 0 0 0 0 0 0 0 0 0 0 0 0 0 0 0 0 0 0 11 0 
		15 0 0 0 0 0 0 0 0 0 0 0 0 0 0 0 0 0 0 0 0 0 0 0 0 17 
		16 0 0 0 0 0 0 0 0 0 0 0 0 0 0 0 0 0 25 0 0 0 0 0 0 0 
		17 0 0 0 0 0 0 0 0 0 0 0 0 0 0 0 0 0 0 0 19 24 0 0 0 0 
		18 0 0 0 0 0 0 0 0 0 0 0 0 0 0 0 0 0 0 0 0 0 0 0 0 0 
		19 0 0 0 0 0 0 0 0 0 0 0 0 0 0 0 0 0 0 0 0 0 0 0 0 0 
		20 0 0 0 0 0 0 0 0 0 0 0 0 0 0 0 0 0 0 0 0 0 0 0 0 0 
		21 0 0 0 0 0 0 0 0 0 0 0 0 0 0 0 0 0 0 0 0 0 0 0 0 0 
		22 0 0 0 0 0 0 0 0 0 0 0 0 0 0 0 0 0 0 0 0 0 0 0 0 19 
		23 0 0 0 0 0 0 0 0 0 0 0 0 0 0 0 0 0 0 0 0 0 0 0 0 0 
		24 0 0 0 0 0 0 0 0 0 0 0 0 0 0 0 0 0 0 0 0 0 0 0 0 0 
;
param bs:	 0 1 2 3 4 5 6 7 8 9 10 11 12 13 14 15 16 17 18 19 20 21 22 23 24 25 26 27 28 29 30 31 32 33 34 35 36 37 38 39 40 41 42 43 44 45 46 47 48 49 50 51 52 53 := 
		0 0 32 0 0 0 0 0 0 32 0 27 0 0 0 0 0 0 0 0 0 0 0 0 0 0 0 0 0 0 0 28 24 0 0 0 0 0 0 0 0 0 0 0 0 0 0 0 0 0 0 0 0 0 0 
		1 32 0 0 0 0 0 0 0 35 0 0 0 0 0 0 0 0 0 0 0 0 24 0 0 0 35 0 0 0 0 0 0 27 32 0 0 0 0 0 0 0 0 0 20 0 0 0 0 0 0 0 25 0 0 
		2 0 0 0 0 31 0 0 0 0 0 0 0 0 0 0 0 0 0 0 0 0 0 0 0 33 0 34 27 0 0 0 0 22 0 23 0 0 0 0 27 40 0 0 0 0 0 0 0 0 0 0 0 0 25 
		3 0 0 0 0 0 0 0 0 0 0 0 0 0 0 0 0 0 21 0 0 0 0 0 0 0 0 0 0 0 0 28 24 0 0 0 0 0 0 22 0 0 0 0 0 0 30 0 0 0 0 0 0 0 0 
		4 0 0 31 0 0 0 0 24 0 0 36 0 0 0 0 25 0 0 0 0 0 0 0 0 0 0 0 0 0 0 27 0 0 0 0 0 0 0 0 0 0 0 0 0 0 0 0 0 0 25 0 0 35 0 
		5 0 0 0 0 0 0 0 0 0 0 35 0 0 0 0 0 0 0 34 0 0 0 0 0 0 0 0 0 0 0 0 0 21 0 22 0 0 0 0 0 0 0 0 0 0 28 0 0 0 0 0 0 0 0 
		6 0 0 0 0 0 0 0 0 0 0 0 0 0 0 0 0 0 32 0 0 38 0 0 0 0 0 0 0 0 0 0 0 0 0 0 0 0 37 0 0 0 0 0 0 0 0 0 0 0 0 0 0 0 0 
		7 0 0 0 0 24 0 0 0 0 0 23 0 0 0 0 0 0 0 25 0 0 0 0 0 0 0 0 0 0 0 0 0 27 0 0 0 32 0 0 0 0 0 0 0 0 0 0 0 35 0 0 0 0 0 
		8 32 35 0 0 0 0 0 0 0 0 0 0 0 38 0 0 0 0 0 0 0 0 0 0 0 0 0 0 0 0 0 33 0 31 0 0 0 0 0 0 0 0 0 0 0 0 0 0 0 0 0 0 0 0 
		9 0 0 0 0 0 0 0 0 0 0 0 0 0 34 0 0 0 21 0 0 0 0 25 0 0 0 0 0 0 39 0 0 35 0 0 40 0 0 0 0 0 0 0 0 0 0 0 0 0 0 0 0 0 0 
		10 27 0 0 0 36 35 0 23 0 0 0 0 0 0 28 0 0 0 0 0 0 0 0 0 0 0 0 0 0 0 0 0 0 0 0 0 0 0 21 0 0 0 0 0 0 0 0 26 0 0 0 0 0 0 
		11 0 0 0 0 0 0 0 0 0 0 0 0 0 0 26 0 0 0 0 0 0 34 0 0 0 26 0 0 0 39 35 30 0 0 0 0 0 0 0 0 0 0 0 32 0 38 0 39 0 0 0 0 37 0 
		12 0 0 0 0 0 0 0 0 0 0 0 0 0 0 0 0 0 37 0 0 0 0 0 0 0 0 0 0 0 0 0 0 0 0 0 24 0 23 0 0 0 0 0 0 0 0 0 0 0 0 0 0 39 0 
		13 0 0 0 0 0 0 0 0 38 34 0 0 0 0 0 0 0 0 0 0 0 0 22 0 0 0 0 0 0 0 0 0 0 0 0 0 0 0 0 0 39 0 0 0 0 0 0 0 0 0 24 0 0 0 
		14 0 0 0 0 0 0 0 0 0 0 28 26 0 0 0 35 0 0 0 0 33 0 0 0 0 0 0 0 0 0 0 0 0 0 0 0 29 0 0 0 0 0 0 0 0 0 22 0 0 22 0 38 0 0 
		15 0 0 0 0 25 0 0 0 0 0 0 0 0 0 35 0 0 0 0 0 0 0 0 0 0 0 0 0 0 0 0 0 0 0 0 0 0 0 0 0 0 0 0 0 0 0 0 0 0 0 0 0 0 0 
		16 0 0 0 0 0 0 0 0 0 0 0 0 0 0 0 0 0 0 0 0 40 0 0 0 0 0 0 0 0 29 0 0 0 36 0 0 0 0 0 0 0 0 0 0 0 0 0 0 0 22 0 0 0 0 
		17 0 0 0 21 0 0 32 0 0 21 0 0 37 0 0 0 0 0 0 0 0 0 25 0 37 0 0 0 33 0 0 0 0 0 0 0 0 30 0 0 0 0 0 0 0 0 0 0 0 0 0 0 0 0 
		18 0 0 0 0 0 34 0 25 0 0 0 0 0 0 0 0 0 0 0 0 0 0 0 0 0 0 40 34 0 0 0 0 0 0 0 0 26 0 0 0 21 0 0 0 0 0 26 0 0 0 0 0 0 0 
		19 0 0 0 0 0 0 0 0 0 0 0 0 0 0 0 0 0 0 0 0 0 32 0 30 0 28 0 0 0 0 0 0 40 0 0 0 0 0 0 0 0 0 0 0 0 0 0 35 0 0 0 0 0 0 
		20 0 0 0 0 0 0 38 0 0 0 0 0 0 0 33 0 40 0 0 0 0 0 0 0 0 0 0 0 0 0 0 33 21 0 0 0 26 0 0 35 0 0 0 37 0 0 20 0 0 25 0 0 0 0 
		21 0 24 0 0 0 0 0 0 0 0 0 34 0 0 0 0 0 0 0 32 0 0 0 0 0 0 0 0 0 0 32 40 0 0 0 29 0 0 0 0 0 0 0 0 0 0 0 0 0 25 0 40 0 0 
		22 0 0 0 0 0 0 0 0 0 25 0 0 0 22 0 0 0 25 0 0 0 0 0 0 0 0 0 0 0 0 0 0 0 23 0 25 0 0 0 0 0 0 0 30 30 0 0 0 0 0 0 0 0 0 
		23 0 0 0 0 0 0 0 0 0 0 0 0 0 0 0 0 0 0 0 30 0 0 0 0 0 0 0 0 24 0 0 0 0 0 0 0 0 0 0 0 0 0 0 0 0 0 0 30 0 0 0 29 0 0 
		24 0 0 33 0 0 0 0 0 0 0 0 0 0 0 0 0 0 37 0 0 0 0 0 0 0 26 34 37 0 0 0 0 0 0 0 0 0 0 38 20 0 32 31 0 0 0 0 0 0 0 0 0 0 0 
		25 0 35 0 0 0 0 0 0 0 0 0 26 0 0 0 0 0 0 0 28 0 0 0 0 26 0 0 0 0 0 0 0 0 0 35 0 0 0 0 0 0 0 28 0 0 0 0 30 0 36 0 0 0 0 
		26 0 0 34 0 0 0 0 0 0 0 0 0 0 0 0 0 0 0 40 0 0 0 0 0 34 0 0 0 0 0 0 0 0 0 0 0 0 0 0 0 0 0 0 0 0 0 0 0 0 0 0 0 0 0 
		27 0 0 27 0 0 0 0 0 0 0 0 0 0 0 0 0 0 0 34 0 0 0 0 0 37 0 0 0 0 0 0 0 0 0 0 0 0 0 0 0 0 0 0 0 0 0 0 0 0 0 0 0 0 0 
		28 0 0 0 0 0 0 0 0 0 0 0 0 0 0 0 0 0 33 0 0 0 0 0 24 0 0 0 0 0 0 0 35 0 0 0 0 0 0 0 0 0 0 0 0 0 0 0 0 0 29 0 0 0 0 
		29 0 0 0 0 0 0 0 0 0 39 0 39 0 0 0 0 29 0 0 0 0 0 0 0 0 0 0 0 0 0 0 0 0 33 0 0 0 0 0 0 0 0 0 0 0 0 0 0 0 0 0 0 0 0 
		30 28 0 0 28 27 0 0 0 0 0 0 35 0 0 0 0 0 0 0 0 0 32 0 0 0 0 0 0 0 0 0 0 0 0 0 0 0 0 0 0 0 0 0 0 0 0 0 0 0 0 0 0 0 0 
		31 24 0 0 24 0 0 0 0 33 0 0 30 0 0 0 0 0 0 0 0 33 40 0 0 0 0 0 0 35 0 0 0 0 0 0 0 22 0 0 40 22 0 40 21 0 37 20 0 0 0 0 0 37 0 
		32 0 27 22 0 0 21 0 27 0 35 0 0 0 0 0 0 0 0 0 40 21 0 0 0 0 0 0 0 0 0 0 0 0 0 0 0 0 0 0 0 21 0 26 0 0 0 34 0 0 0 0 0 24 0 
		33 0 32 0 0 0 0 0 0 31 0 0 0 0 0 0 0 36 0 0 0 0 0 23 0 0 0 0 0 0 33 0 0 0 0 0 0 0 29 0 0 0 0 0 0 40 0 23 0 0 0 0 0 0 0 
		34 0 0 23 0 0 22 0 0 0 0 0 0 0 0 0 0 0 0 0 0 0 0 0 0 0 35 0 0 0 0 0 0 0 0 0 0 31 0 0 0 0 0 0 39 0 0 0 0 0 0 0 0 28 0 
		35 0 0 0 0 0 0 0 0 0 40 0 0 24 0 0 0 0 0 0 0 0 29 25 0 0 0 0 0 0 0 0 0 0 0 0 0 0 0 0 0 0 0 33 0 0 0 0 0 0 0 27 0 0 0 
		36 0 0 0 0 0 0 0 32 0 0 0 0 0 0 29 0 0 0 26 0 26 0 0 0 0 0 0 0 0 0 0 22 0 0 31 0 0 0 0 0 0 0 0 0 0 0 39 0 0 0 0 0 0 0 
		37 0 0 0 0 0 0 37 0 0 0 0 0 23 0 0 0 0 30 0 0 0 0 0 0 0 0 0 0 0 0 0 0 0 29 0 0 0 0 20 0 0 0 27 0 0 0 0 0 0 0 20 0 0 0 
		38 0 0 0 22 0 0 0 0 0 0 21 0 0 0 0 0 0 0 0 0 0 0 0 0 38 0 0 0 0 0 0 0 0 0 0 0 0 20 0 0 0 0 0 0 0 0 0 0 0 0 40 0 0 0 
		39 0 0 27 0 0 0 0 0 0 0 0 0 0 0 0 0 0 0 0 0 35 0 0 0 20 0 0 0 0 0 0 40 0 0 0 0 0 0 0 0 0 0 35 0 0 0 0 0 0 0 35 0 0 0 
		40 0 0 40 0 0 0 0 0 0 0 0 0 0 39 0 0 0 0 21 0 0 0 0 0 0 0 0 0 0 0 0 22 21 0 0 0 0 0 0 0 0 0 0 0 0 0 0 0 25 33 0 0 22 0 
		41 0 0 0 0 0 0 0 0 0 0 0 0 0 0 0 0 0 0 0 0 0 0 0 0 32 0 0 0 0 0 0 0 0 0 0 0 0 0 0 0 0 0 0 0 0 0 0 0 0 0 0 0 0 0 
		42 0 0 0 0 0 0 0 0 0 0 0 0 0 0 0 0 0 0 0 0 0 0 0 0 31 28 0 0 0 0 0 40 26 0 0 33 0 27 0 35 0 0 0 0 0 0 0 0 0 0 0 0 0 0 
		43 0 20 0 0 0 0 0 0 0 0 0 32 0 0 0 0 0 0 0 0 37 0 30 0 0 0 0 0 0 0 0 21 0 0 39 0 0 0 0 0 0 0 0 0 0 0 0 0 0 0 0 0 31 0 
		44 0 0 0 0 0 0 0 0 0 0 0 0 0 0 0 0 0 0 0 0 0 0 30 0 0 0 0 0 0 0 0 0 0 40 0 0 0 0 0 0 0 0 0 0 0 0 0 0 0 0 31 0 0 0 
		45 0 0 0 30 0 28 0 0 0 0 0 38 0 0 0 0 0 0 0 0 0 0 0 0 0 0 0 0 0 0 0 37 0 0 0 0 0 0 0 0 0 0 0 0 0 0 0 0 0 0 0 0 0 0 
		46 0 0 0 0 0 0 0 0 0 0 0 0 0 0 22 0 0 0 26 0 20 0 0 0 0 0 0 0 0 0 0 20 34 23 0 0 39 0 0 0 0 0 0 0 0 0 0 29 0 0 22 27 0 0 
		47 0 0 0 0 0 0 0 0 0 0 26 39 0 0 0 0 0 0 0 35 0 0 0 30 0 30 0 0 0 0 0 0 0 0 0 0 0 0 0 0 0 0 0 0 0 0 29 0 0 0 0 0 0 0 
		48 0 0 0 0 0 0 0 35 0 0 0 0 0 0 0 0 0 0 0 0 0 0 0 0 0 0 0 0 0 0 0 0 0 0 0 0 0 0 0 0 25 0 0 0 0 0 0 0 0 0 0 0 0 0 
		49 0 0 0 0 25 0 0 0 0 0 0 0 0 0 22 0 22 0 0 0 25 25 0 0 0 36 0 0 29 0 0 0 0 0 0 0 0 0 0 0 33 0 0 0 0 0 0 0 0 0 22 30 0 0 
		50 0 0 0 0 0 0 0 0 0 0 0 0 0 24 0 0 0 0 0 0 0 0 0 0 0 0 0 0 0 0 0 0 0 0 0 27 0 20 40 35 0 0 0 0 31 0 22 0 0 22 0 0 0 22 
		51 0 25 0 0 0 0 0 0 0 0 0 0 0 0 38 0 0 0 0 0 0 40 0 29 0 0 0 0 0 0 0 0 0 0 0 0 0 0 0 0 0 0 0 0 0 0 27 0 0 30 0 0 0 0 
		52 0 0 0 0 35 0 0 0 0 0 0 37 39 0 0 0 0 0 0 0 0 0 0 0 0 0 0 0 0 0 0 37 24 0 28 0 0 0 0 0 22 0 0 31 0 0 0 0 0 0 0 0 0 0 
		53 0 0 25 0 0 0 0 0 0 0 0 0 0 0 0 0 0 0 0 0 0 0 0 0 0 0 0 0 0 0 0 0 0 0 0 0 0 0 0 0 0 0 0 0 0 0 0 0 0 0 22 0 0 0 
;
